proyfinal/src/viki/013/experimentInOfficeAgust.take6.output/e6649c22-c6f7-471e-88ed-9d2d93cd5646.als.dat
{'cnf.clauses': '118081',
 'cnf.totvars': '69608',
 'conflict literals': '4',
 'conflicts': '4',
 'decisions': '1048',
 'memused.mb': '16.68',
 'outcome': 'UNSAT',
 'propagations': '20524',
 'restarts': '1',
 'solver.msecs': 29,
 'task.msecs': 80}
