proyfinal/src/viki/013/experimentInOfficeAgust.take6.output/e6649c22-c6f7-471e-88ed-9d2d93cd5646.als.out
Reading from standard input... Use '--help' for help.
============================[ Problem Statistics ]=============================
|                                                                             |
|  Number of variables:         69608                                         |
|  Number of clauses:          118081                                         |
|  Parse time:                   0.02 s                                       |
|                                                                             |
============================[ Search Statistics ]==============================
| Conflicts |          ORIGINAL         |          LEARNT          | Progress |
|           |    Vars  Clauses Literals |    Limit  Clauses Lit/Cl |          |
===============================================================================
===============================================================================
restarts              : 1
conflicts             : 4              (135 /sec)
decisions             : 1048           (0.00 % random) (35446 /sec)
propagations          : 20524          (694176 /sec)
conflict literals     : 4              (0.00 % deleted)
Memory used           : 16.68 MB
CPU time              : 0.029566 s

UNSATISFIABLE
